c instance by G2
c solution = 0101000110
c Known solution cost is 1309 
p cnf 10 10
w 722 168 914 315 91 735 877 771 55 898
-5 10 -9 0
-3 -4 5 0
1 -8 -7 0
9 -8 3 0
4 3 -8 0
2 6 -9 0
-2 -8 -6 0
-1 5 10 0
10 -9 8 0
-4 3 -10 0
